NAME chemical reaction_srl_ilp
* Max problem is converted into Min one
ROWS
 N  OBJ
 L  constraint1_5823
 L  constraint1_5820
 L  constraint1_5826
 L  constraint1_5825
 L  constraint1_5824
 L  constraint1_5822
 L  constraint1_5821
 L  constraint2_5820
 L  constraint2_5821
 L  constraint2_5822
 L  constraint2_5823
COLUMNS
    MARKER    'MARKER'                 'INTORG'
    Z_582_3_0  OBJ       -2.0137224719877434e-02
    Z_582_3_0  constraint1_5823  1
    Z_582_3_0  constraint2_5820  1
    Z_582_3_1  OBJ       -3.1557716874732480e-02
    Z_582_3_1  constraint1_5823  1
    Z_582_3_1  constraint2_5821  1
    Z_582_3_2  OBJ       -2.0454026858782306e-02
    Z_582_3_2  constraint1_5823  1
    Z_582_3_2  constraint2_5822  1
    Z_582_3_3  OBJ       -2.0851259065209307e-01
    Z_582_3_3  constraint1_5823  1
    Z_582_3_3  constraint2_5823  1
    Z_582_0_0  OBJ       -1.3114144620799918e-02
    Z_582_0_0  constraint1_5820  1
    Z_582_0_0  constraint2_5820  1
    Z_582_0_1  OBJ       -8.3459583622265913e-03
    Z_582_0_1  constraint1_5820  1
    Z_582_0_1  constraint2_5821  1
    Z_582_0_2  OBJ       -7.5233141431008564e-03
    Z_582_0_2  constraint1_5820  1
    Z_582_0_2  constraint2_5822  1
    Z_582_0_3  OBJ       -1.7723925930261605e-01
    Z_582_0_3  constraint1_5820  1
    Z_582_0_3  constraint2_5823  1
    Z_582_6_0  OBJ       -2.7938456600502683e-02
    Z_582_6_0  constraint1_5826  1
    Z_582_6_0  constraint2_5820  1
    Z_582_6_1  OBJ       -1.0814843219121759e-01
    Z_582_6_1  constraint1_5826  1
    Z_582_6_1  constraint2_5821  1
    Z_582_6_2  OBJ       -2.6076695520148740e-02
    Z_582_6_2  constraint1_5826  1
    Z_582_6_2  constraint2_5822  1
    Z_582_6_3  OBJ       -3.7334137689418574e-02
    Z_582_6_3  constraint1_5826  1
    Z_582_6_3  constraint2_5823  1
    Z_582_5_0  OBJ       -1.0071451952705391e-02
    Z_582_5_0  constraint1_5825  1
    Z_582_5_0  constraint2_5820  1
    Z_582_5_1  OBJ       -2.7503846313213631e-02
    Z_582_5_1  constraint1_5825  1
    Z_582_5_1  constraint2_5821  1
    Z_582_5_2  OBJ       -3.4731005029828804e-01
    Z_582_5_2  constraint1_5825  1
    Z_582_5_2  constraint2_5822  1
    Z_582_5_3  OBJ       -2.1929867415105150e-02
    Z_582_5_3  constraint1_5825  1
    Z_582_5_3  constraint2_5823  1
    Z_582_4_0  OBJ       -2.0137224719877434e-02
    Z_582_4_0  constraint1_5824  1
    Z_582_4_0  constraint2_5820  1
    Z_582_4_1  OBJ       -3.1557716874732480e-02
    Z_582_4_1  constraint1_5824  1
    Z_582_4_1  constraint2_5821  1
    Z_582_4_2  OBJ       -2.0454026858782306e-02
    Z_582_4_2  constraint1_5824  1
    Z_582_4_2  constraint2_5822  1
    Z_582_4_3  OBJ       -2.0851259065209307e-01
    Z_582_4_3  constraint1_5824  1
    Z_582_4_3  constraint2_5823  1
    Z_582_2_0  OBJ       -2.0137224719877434e-02
    Z_582_2_0  constraint1_5822  1
    Z_582_2_0  constraint2_5820  1
    Z_582_2_1  OBJ       -3.1557716874732480e-02
    Z_582_2_1  constraint1_5822  1
    Z_582_2_1  constraint2_5821  1
    Z_582_2_2  OBJ       -2.0454026858782306e-02
    Z_582_2_2  constraint1_5822  1
    Z_582_2_2  constraint2_5822  1
    Z_582_2_3  OBJ       -2.0851259065209307e-01
    Z_582_2_3  constraint1_5822  1
    Z_582_2_3  constraint2_5823  1
    Z_582_1_0  OBJ       -1.3114144620799918e-02
    Z_582_1_0  constraint1_5821  1
    Z_582_1_0  constraint2_5820  1
    Z_582_1_1  OBJ       -8.3459583622265913e-03
    Z_582_1_1  constraint1_5821  1
    Z_582_1_1  constraint2_5821  1
    Z_582_1_2  OBJ       -7.5233141431008564e-03
    Z_582_1_2  constraint1_5821  1
    Z_582_1_2  constraint2_5822  1
    Z_582_1_3  OBJ       -1.7723925930261605e-01
    Z_582_1_3  constraint1_5821  1
    Z_582_1_3  constraint2_5823  1
    MARKER    'MARKER'                 'INTEND'
RHS
    RHS1      constraint1_5823  1
    RHS1      constraint1_5820  1
    RHS1      constraint1_5826  1
    RHS1      constraint1_5825  1
    RHS1      constraint1_5824  1
    RHS1      constraint1_5822  1
    RHS1      constraint1_5821  1
    RHS1      constraint2_5820  1
    RHS1      constraint2_5821  1
    RHS1      constraint2_5822  1
    RHS1      constraint2_5823  1
BOUNDS
 UP BND1      Z_582_3_0  1
 UP BND1      Z_582_3_1  1
 UP BND1      Z_582_3_2  1
 UP BND1      Z_582_3_3  1
 UP BND1      Z_582_0_0  1
 UP BND1      Z_582_0_1  1
 UP BND1      Z_582_0_2  1
 UP BND1      Z_582_0_3  1
 UP BND1      Z_582_6_0  1
 UP BND1      Z_582_6_1  1
 UP BND1      Z_582_6_2  1
 UP BND1      Z_582_6_3  1
 UP BND1      Z_582_5_0  1
 UP BND1      Z_582_5_1  1
 UP BND1      Z_582_5_2  1
 UP BND1      Z_582_5_3  1
 UP BND1      Z_582_4_0  1
 UP BND1      Z_582_4_1  1
 UP BND1      Z_582_4_2  1
 UP BND1      Z_582_4_3  1
 UP BND1      Z_582_2_0  1
 UP BND1      Z_582_2_1  1
 UP BND1      Z_582_2_2  1
 UP BND1      Z_582_2_3  1
 UP BND1      Z_582_1_0  1
 UP BND1      Z_582_1_1  1
 UP BND1      Z_582_1_2  1
 UP BND1      Z_582_1_3  1
ENDATA
